c b=4,c=481
p cnf 17 52
4 -8 0
1 2 3 4 -13 0
2 3 4 -14 0
1 3 4 -15 0
1 2 4 -16 0
-4 8 0
1 2 3 -4 13 0
1 -4 14 0
1 2 -4 15 0
1 2 3 -4 16 0
3 -7 0
1 2 3 -12 0
1 2 3 -17 0
-3 4 13 0
4 -17 0
-3 -4 -13 0
-3 -4 17 0
-3 7 0
1 2 -3 12 0
1 -3 14 0
1 2 -3 15 0
1 2 -3 -16 0
2 -6 0
1 2 -11 0
-2 4 13 0
-2 -4 -13 0
-2 -4 17 0
-2 3 12 0
-2 3 -16 0
-2 -3 -12 0
-2 -3 16 0
-2 6 0
1 -2 11 0
1 -2 14 0
1 -2 -15 0
1 -5 0
1 -10 0
-1 4 13 0
-1 -4 -13 0
-1 -4 17 0
-1 3 12 0
-1 3 -16 0
-1 -3 -12 0
-1 -3 16 0
-1 2 11 0
-1 2 -15 0
-1 -2 -11 0
-1 -2 15 0
-1 5 0
-1 10 0
-1 -14 0
-9 0
